p cnf 216 1035
1 2 3 4 5 0
-46 0
-1 47 0
-2 47 0
-1 -2 48 0
-3 49 0
-4 49 0
-3 -4 50 0
-5 51 0
-46 51 0
-5 -46 52 0
-49 53 0
-51 53 0
-49 -51 54 0
-50 55 0
-52 55 0
-50 -52 56 0
-54 57 0
-55 57 0
-54 -55 58 0
-47 59 0
-53 59 0
-47 -53 60 0
-48 61 0
-57 61 0
-48 -57 62 0
-60 63 0
-61 63 0
-60 -61 64 0
-63 0
16 17 18 19 20 0
-65 0
-16 66 0
-17 66 0
-16 -17 67 0
-18 68 0
-19 68 0
-18 -19 69 0
-20 70 0
-65 70 0
-20 -65 71 0
-68 72 0
-70 72 0
-68 -70 73 0
-69 74 0
-71 74 0
-69 -71 75 0
-73 76 0
-74 76 0
-73 -74 77 0
-66 78 0
-72 78 0
-66 -72 79 0
-67 80 0
-76 80 0
-67 -76 81 0
-79 82 0
-80 82 0
-79 -80 83 0
-82 0
31 32 33 34 35 0
-84 0
-31 85 0
-32 85 0
-31 -32 86 0
-33 87 0
-34 87 0
-33 -34 88 0
-35 89 0
-84 89 0
-35 -84 90 0
-87 91 0
-89 91 0
-87 -89 92 0
-88 93 0
-90 93 0
-88 -90 94 0
-92 95 0
-93 95 0
-92 -93 96 0
-85 97 0
-91 97 0
-85 -91 98 0
-86 99 0
-95 99 0
-86 -95 100 0
-98 101 0
-99 101 0
-98 -99 102 0
-101 0
6 7 8 9 10 0
-103 0
-6 104 0
-7 104 0
-6 -7 105 0
-8 106 0
-9 106 0
-8 -9 107 0
-10 108 0
-103 108 0
-10 -103 109 0
-106 110 0
-108 110 0
-106 -108 111 0
-107 112 0
-109 112 0
-107 -109 113 0
-111 114 0
-112 114 0
-111 -112 115 0
-104 116 0
-110 116 0
-104 -110 117 0
-105 118 0
-114 118 0
-105 -114 119 0
-117 120 0
-118 120 0
-117 -118 121 0
-120 0
21 22 23 24 25 0
-122 0
-21 123 0
-22 123 0
-21 -22 124 0
-23 125 0
-24 125 0
-23 -24 126 0
-25 127 0
-122 127 0
-25 -122 128 0
-125 129 0
-127 129 0
-125 -127 130 0
-126 131 0
-128 131 0
-126 -128 132 0
-130 133 0
-131 133 0
-130 -131 134 0
-123 135 0
-129 135 0
-123 -129 136 0
-124 137 0
-133 137 0
-124 -133 138 0
-136 139 0
-137 139 0
-136 -137 140 0
-139 0
36 37 38 39 40 0
-141 0
-36 142 0
-37 142 0
-36 -37 143 0
-38 144 0
-39 144 0
-38 -39 145 0
-40 146 0
-141 146 0
-40 -141 147 0
-144 148 0
-146 148 0
-144 -146 149 0
-145 150 0
-147 150 0
-145 -147 151 0
-149 152 0
-150 152 0
-149 -150 153 0
-142 154 0
-148 154 0
-142 -148 155 0
-143 156 0
-152 156 0
-143 -152 157 0
-155 158 0
-156 158 0
-155 -156 159 0
-158 0
11 12 13 14 15 0
-160 0
-11 161 0
-12 161 0
-11 -12 162 0
-13 163 0
-14 163 0
-13 -14 164 0
-15 165 0
-160 165 0
-15 -160 166 0
-163 167 0
-165 167 0
-163 -165 168 0
-164 169 0
-166 169 0
-164 -166 170 0
-168 171 0
-169 171 0
-168 -169 172 0
-161 173 0
-167 173 0
-161 -167 174 0
-162 175 0
-171 175 0
-162 -171 176 0
-174 177 0
-175 177 0
-174 -175 178 0
-177 0
26 27 28 29 30 0
-179 0
-26 180 0
-27 180 0
-26 -27 181 0
-28 182 0
-29 182 0
-28 -29 183 0
-30 184 0
-179 184 0
-30 -179 185 0
-182 186 0
-184 186 0
-182 -184 187 0
-183 188 0
-185 188 0
-183 -185 189 0
-187 190 0
-188 190 0
-187 -188 191 0
-180 192 0
-186 192 0
-180 -186 193 0
-181 194 0
-190 194 0
-181 -190 195 0
-193 196 0
-194 196 0
-193 -194 197 0
-196 0
41 42 43 44 45 0
-198 0
-41 199 0
-42 199 0
-41 -42 200 0
-43 201 0
-44 201 0
-43 -44 202 0
-45 203 0
-198 203 0
-45 -198 204 0
-201 205 0
-203 205 0
-201 -203 206 0
-202 207 0
-204 207 0
-202 -204 208 0
-206 209 0
-207 209 0
-206 -207 210 0
-199 211 0
-205 211 0
-199 -205 212 0
-200 213 0
-209 213 0
-200 -209 214 0
-212 215 0
-213 215 0
-212 -213 216 0
-215 0
-1 -16 -31 7 0
-1 -17 -31 7 0
-1 -18 -31 7 0
-1 -19 -31 7 0
-1 -20 -31 7 0
-1 -16 -32 7 0
-1 -17 -32 7 0
-1 -18 -32 7 0
-1 -19 -32 7 0
-1 -20 -32 7 0
-1 -16 -33 7 0
-1 -17 -33 7 0
-1 -18 -33 7 0
-1 -19 -33 7 0
-1 -20 -33 7 0
-1 -16 -34 7 0
-1 -17 -34 7 0
-1 -18 -34 7 0
-1 -19 -34 7 0
-1 -20 -34 7 0
-1 -16 -35 7 0
-1 -17 -35 7 0
-1 -18 -35 7 0
-1 -19 -35 7 0
-1 -20 -35 7 0
-2 -16 -31 7 0
-2 -17 -31 7 0
-2 -18 -31 7 0
-2 -19 -31 7 0
-2 -20 -31 7 0
-2 -16 -32 7 0
-2 -17 -32 8 0
-2 -18 -32 8 0
-2 -19 -32 8 0
-2 -20 -32 8 0
-2 -16 -33 7 0
-2 -17 -33 8 0
-2 -18 -33 8 0
-2 -19 -33 8 0
-2 -20 -33 8 0
-2 -16 -34 7 0
-2 -17 -34 8 0
-2 -18 -34 8 0
-2 -19 -34 8 0
-2 -20 -34 8 0
-2 -16 -35 7 0
-2 -17 -35 8 0
-2 -18 -35 8 0
-2 -19 -35 8 0
-2 -20 -35 8 0
-3 -16 -31 7 0
-3 -17 -31 7 0
-3 -18 -31 7 0
-3 -19 -31 7 0
-3 -20 -31 7 0
-3 -16 -32 7 0
-3 -17 -32 8 0
-3 -18 -32 8 0
-3 -19 -32 8 0
-3 -20 -32 8 0
-3 -16 -33 7 0
-3 -17 -33 8 0
-3 -18 -33 9 0
-3 -19 -33 9 0
-3 -20 -33 9 0
-3 -16 -34 7 0
-3 -17 -34 8 0
-3 -18 -34 9 0
-3 -19 -34 9 0
-3 -20 -34 9 0
-3 -16 -35 7 0
-3 -17 -35 8 0
-3 -18 -35 9 0
-3 -19 -35 9 0
-3 -20 -35 9 0
-4 -16 -31 7 0
-4 -17 -31 7 0
-4 -18 -31 7 0
-4 -19 -31 7 0
-4 -20 -31 7 0
-4 -16 -32 7 0
-4 -17 -32 8 0
-4 -18 -32 8 0
-4 -19 -32 8 0
-4 -20 -32 8 0
-4 -16 -33 7 0
-4 -17 -33 8 0
-4 -18 -33 9 0
-4 -19 -33 9 0
-4 -20 -33 9 0
-4 -16 -34 7 0
-4 -17 -34 8 0
-4 -18 -34 9 0
-4 -19 -34 10 0
-4 -20 -34 10 0
-4 -16 -35 7 0
-4 -17 -35 8 0
-4 -18 -35 9 0
-4 -19 -35 10 0
-4 -20 -35 10 0
-5 -16 -31 7 0
-5 -17 -31 7 0
-5 -18 -31 7 0
-5 -19 -31 7 0
-5 -20 -31 7 0
-5 -16 -32 7 0
-5 -17 -32 8 0
-5 -18 -32 8 0
-5 -19 -32 8 0
-5 -20 -32 8 0
-5 -16 -33 7 0
-5 -17 -33 8 0
-5 -18 -33 9 0
-5 -19 -33 9 0
-5 -20 -33 9 0
-5 -16 -34 7 0
-5 -17 -34 8 0
-5 -18 -34 9 0
-5 -19 -34 10 0
-5 -20 -34 10 0
-5 -16 -35 7 0
-5 -17 -35 8 0
-5 -18 -35 9 0
-5 -19 -35 10 0
-5 -20 -35 6 0
-16 -1 -31 22 0
-16 -2 -31 22 0
-16 -3 -31 22 0
-16 -4 -31 22 0
-16 -5 -31 22 0
-16 -1 -32 22 0
-16 -2 -32 22 0
-16 -3 -32 22 0
-16 -4 -32 22 0
-16 -5 -32 22 0
-16 -1 -33 22 0
-16 -2 -33 22 0
-16 -3 -33 22 0
-16 -4 -33 22 0
-16 -5 -33 22 0
-16 -1 -34 22 0
-16 -2 -34 22 0
-16 -3 -34 22 0
-16 -4 -34 22 0
-16 -5 -34 22 0
-16 -1 -35 22 0
-16 -2 -35 22 0
-16 -3 -35 22 0
-16 -4 -35 22 0
-16 -5 -35 22 0
-17 -1 -31 22 0
-17 -2 -31 22 0
-17 -3 -31 22 0
-17 -4 -31 22 0
-17 -5 -31 22 0
-17 -1 -32 22 0
-17 -2 -32 23 0
-17 -3 -32 23 0
-17 -4 -32 23 0
-17 -5 -32 23 0
-17 -1 -33 22 0
-17 -2 -33 23 0
-17 -3 -33 23 0
-17 -4 -33 23 0
-17 -5 -33 23 0
-17 -1 -34 22 0
-17 -2 -34 23 0
-17 -3 -34 23 0
-17 -4 -34 23 0
-17 -5 -34 23 0
-17 -1 -35 22 0
-17 -2 -35 23 0
-17 -3 -35 23 0
-17 -4 -35 23 0
-17 -5 -35 23 0
-18 -1 -31 22 0
-18 -2 -31 22 0
-18 -3 -31 22 0
-18 -4 -31 22 0
-18 -5 -31 22 0
-18 -1 -32 22 0
-18 -2 -32 23 0
-18 -3 -32 23 0
-18 -4 -32 23 0
-18 -5 -32 23 0
-18 -1 -33 22 0
-18 -2 -33 23 0
-18 -3 -33 24 0
-18 -4 -33 24 0
-18 -5 -33 24 0
-18 -1 -34 22 0
-18 -2 -34 23 0
-18 -3 -34 24 0
-18 -4 -34 24 0
-18 -5 -34 24 0
-18 -1 -35 22 0
-18 -2 -35 23 0
-18 -3 -35 24 0
-18 -4 -35 24 0
-18 -5 -35 24 0
-19 -1 -31 22 0
-19 -2 -31 22 0
-19 -3 -31 22 0
-19 -4 -31 22 0
-19 -5 -31 22 0
-19 -1 -32 22 0
-19 -2 -32 23 0
-19 -3 -32 23 0
-19 -4 -32 23 0
-19 -5 -32 23 0
-19 -1 -33 22 0
-19 -2 -33 23 0
-19 -3 -33 24 0
-19 -4 -33 24 0
-19 -5 -33 24 0
-19 -1 -34 22 0
-19 -2 -34 23 0
-19 -3 -34 24 0
-19 -4 -34 25 0
-19 -5 -34 25 0
-19 -1 -35 22 0
-19 -2 -35 23 0
-19 -3 -35 24 0
-19 -4 -35 25 0
-19 -5 -35 25 0
-20 -1 -31 22 0
-20 -2 -31 22 0
-20 -3 -31 22 0
-20 -4 -31 22 0
-20 -5 -31 22 0
-20 -1 -32 22 0
-20 -2 -32 23 0
-20 -3 -32 23 0
-20 -4 -32 23 0
-20 -5 -32 23 0
-20 -1 -33 22 0
-20 -2 -33 23 0
-20 -3 -33 24 0
-20 -4 -33 24 0
-20 -5 -33 24 0
-20 -1 -34 22 0
-20 -2 -34 23 0
-20 -3 -34 24 0
-20 -4 -34 25 0
-20 -5 -34 25 0
-20 -1 -35 22 0
-20 -2 -35 23 0
-20 -3 -35 24 0
-20 -4 -35 25 0
-20 -5 -35 21 0
-31 -1 -16 37 0
-31 -2 -16 37 0
-31 -3 -16 37 0
-31 -4 -16 37 0
-31 -5 -16 37 0
-31 -1 -17 37 0
-31 -2 -17 37 0
-31 -3 -17 37 0
-31 -4 -17 37 0
-31 -5 -17 37 0
-31 -1 -18 37 0
-31 -2 -18 37 0
-31 -3 -18 37 0
-31 -4 -18 37 0
-31 -5 -18 37 0
-31 -1 -19 37 0
-31 -2 -19 37 0
-31 -3 -19 37 0
-31 -4 -19 37 0
-31 -5 -19 37 0
-31 -1 -20 37 0
-31 -2 -20 37 0
-31 -3 -20 37 0
-31 -4 -20 37 0
-31 -5 -20 37 0
-32 -1 -16 37 0
-32 -2 -16 37 0
-32 -3 -16 37 0
-32 -4 -16 37 0
-32 -5 -16 37 0
-32 -1 -17 37 0
-32 -2 -17 38 0
-32 -3 -17 38 0
-32 -4 -17 38 0
-32 -5 -17 38 0
-32 -1 -18 37 0
-32 -2 -18 38 0
-32 -3 -18 38 0
-32 -4 -18 38 0
-32 -5 -18 38 0
-32 -1 -19 37 0
-32 -2 -19 38 0
-32 -3 -19 38 0
-32 -4 -19 38 0
-32 -5 -19 38 0
-32 -1 -20 37 0
-32 -2 -20 38 0
-32 -3 -20 38 0
-32 -4 -20 38 0
-32 -5 -20 38 0
-33 -1 -16 37 0
-33 -2 -16 37 0
-33 -3 -16 37 0
-33 -4 -16 37 0
-33 -5 -16 37 0
-33 -1 -17 37 0
-33 -2 -17 38 0
-33 -3 -17 38 0
-33 -4 -17 38 0
-33 -5 -17 38 0
-33 -1 -18 37 0
-33 -2 -18 38 0
-33 -3 -18 39 0
-33 -4 -18 39 0
-33 -5 -18 39 0
-33 -1 -19 37 0
-33 -2 -19 38 0
-33 -3 -19 39 0
-33 -4 -19 39 0
-33 -5 -19 39 0
-33 -1 -20 37 0
-33 -2 -20 38 0
-33 -3 -20 39 0
-33 -4 -20 39 0
-33 -5 -20 39 0
-34 -1 -16 37 0
-34 -2 -16 37 0
-34 -3 -16 37 0
-34 -4 -16 37 0
-34 -5 -16 37 0
-34 -1 -17 37 0
-34 -2 -17 38 0
-34 -3 -17 38 0
-34 -4 -17 38 0
-34 -5 -17 38 0
-34 -1 -18 37 0
-34 -2 -18 38 0
-34 -3 -18 39 0
-34 -4 -18 39 0
-34 -5 -18 39 0
-34 -1 -19 37 0
-34 -2 -19 38 0
-34 -3 -19 39 0
-34 -4 -19 40 0
-34 -5 -19 40 0
-34 -1 -20 37 0
-34 -2 -20 38 0
-34 -3 -20 39 0
-34 -4 -20 40 0
-34 -5 -20 40 0
-35 -1 -16 37 0
-35 -2 -16 37 0
-35 -3 -16 37 0
-35 -4 -16 37 0
-35 -5 -16 37 0
-35 -1 -17 37 0
-35 -2 -17 38 0
-35 -3 -17 38 0
-35 -4 -17 38 0
-35 -5 -17 38 0
-35 -1 -18 37 0
-35 -2 -18 38 0
-35 -3 -18 39 0
-35 -4 -18 39 0
-35 -5 -18 39 0
-35 -1 -19 37 0
-35 -2 -19 38 0
-35 -3 -19 39 0
-35 -4 -19 40 0
-35 -5 -19 40 0
-35 -1 -20 37 0
-35 -2 -20 38 0
-35 -3 -20 39 0
-35 -4 -20 40 0
-35 -5 -20 36 0
-6 -21 -36 12 0
-6 -22 -36 12 0
-6 -23 -36 12 0
-6 -24 -36 12 0
-6 -25 -36 12 0
-6 -21 -37 12 0
-6 -22 -37 12 0
-6 -23 -37 12 0
-6 -24 -37 12 0
-6 -25 -37 12 0
-6 -21 -38 12 0
-6 -22 -38 12 0
-6 -23 -38 12 0
-6 -24 -38 12 0
-6 -25 -38 12 0
-6 -21 -39 12 0
-6 -22 -39 12 0
-6 -23 -39 12 0
-6 -24 -39 12 0
-6 -25 -39 12 0
-6 -21 -40 12 0
-6 -22 -40 12 0
-6 -23 -40 12 0
-6 -24 -40 12 0
-6 -25 -40 12 0
-7 -21 -36 12 0
-7 -22 -36 12 0
-7 -23 -36 12 0
-7 -24 -36 12 0
-7 -25 -36 12 0
-7 -21 -37 12 0
-7 -22 -37 13 0
-7 -23 -37 13 0
-7 -24 -37 13 0
-7 -25 -37 13 0
-7 -21 -38 12 0
-7 -22 -38 13 0
-7 -23 -38 13 0
-7 -24 -38 13 0
-7 -25 -38 13 0
-7 -21 -39 12 0
-7 -22 -39 13 0
-7 -23 -39 13 0
-7 -24 -39 13 0
-7 -25 -39 13 0
-7 -21 -40 12 0
-7 -22 -40 13 0
-7 -23 -40 13 0
-7 -24 -40 13 0
-7 -25 -40 13 0
-8 -21 -36 12 0
-8 -22 -36 12 0
-8 -23 -36 12 0
-8 -24 -36 12 0
-8 -25 -36 12 0
-8 -21 -37 12 0
-8 -22 -37 13 0
-8 -23 -37 13 0
-8 -24 -37 13 0
-8 -25 -37 13 0
-8 -21 -38 12 0
-8 -22 -38 13 0
-8 -23 -38 14 0
-8 -24 -38 14 0
-8 -25 -38 14 0
-8 -21 -39 12 0
-8 -22 -39 13 0
-8 -23 -39 14 0
-8 -24 -39 14 0
-8 -25 -39 14 0
-8 -21 -40 12 0
-8 -22 -40 13 0
-8 -23 -40 14 0
-8 -24 -40 14 0
-8 -25 -40 14 0
-9 -21 -36 12 0
-9 -22 -36 12 0
-9 -23 -36 12 0
-9 -24 -36 12 0
-9 -25 -36 12 0
-9 -21 -37 12 0
-9 -22 -37 13 0
-9 -23 -37 13 0
-9 -24 -37 13 0
-9 -25 -37 13 0
-9 -21 -38 12 0
-9 -22 -38 13 0
-9 -23 -38 14 0
-9 -24 -38 14 0
-9 -25 -38 14 0
-9 -21 -39 12 0
-9 -22 -39 13 0
-9 -23 -39 14 0
-9 -24 -39 15 0
-9 -25 -39 15 0
-9 -21 -40 12 0
-9 -22 -40 13 0
-9 -23 -40 14 0
-9 -24 -40 15 0
-9 -25 -40 15 0
-10 -21 -36 12 0
-10 -22 -36 12 0
-10 -23 -36 12 0
-10 -24 -36 12 0
-10 -25 -36 12 0
-10 -21 -37 12 0
-10 -22 -37 13 0
-10 -23 -37 13 0
-10 -24 -37 13 0
-10 -25 -37 13 0
-10 -21 -38 12 0
-10 -22 -38 13 0
-10 -23 -38 14 0
-10 -24 -38 14 0
-10 -25 -38 14 0
-10 -21 -39 12 0
-10 -22 -39 13 0
-10 -23 -39 14 0
-10 -24 -39 15 0
-10 -25 -39 15 0
-10 -21 -40 12 0
-10 -22 -40 13 0
-10 -23 -40 14 0
-10 -24 -40 15 0
-10 -25 -40 11 0
-21 -6 -36 27 0
-21 -7 -36 27 0
-21 -8 -36 27 0
-21 -9 -36 27 0
-21 -10 -36 27 0
-21 -6 -37 27 0
-21 -7 -37 27 0
-21 -8 -37 27 0
-21 -9 -37 27 0
-21 -10 -37 27 0
-21 -6 -38 27 0
-21 -7 -38 27 0
-21 -8 -38 27 0
-21 -9 -38 27 0
-21 -10 -38 27 0
-21 -6 -39 27 0
-21 -7 -39 27 0
-21 -8 -39 27 0
-21 -9 -39 27 0
-21 -10 -39 27 0
-21 -6 -40 27 0
-21 -7 -40 27 0
-21 -8 -40 27 0
-21 -9 -40 27 0
-21 -10 -40 27 0
-22 -6 -36 27 0
-22 -7 -36 27 0
-22 -8 -36 27 0
-22 -9 -36 27 0
-22 -10 -36 27 0
-22 -6 -37 27 0
-22 -7 -37 28 0
-22 -8 -37 28 0
-22 -9 -37 28 0
-22 -10 -37 28 0
-22 -6 -38 27 0
-22 -7 -38 28 0
-22 -8 -38 28 0
-22 -9 -38 28 0
-22 -10 -38 28 0
-22 -6 -39 27 0
-22 -7 -39 28 0
-22 -8 -39 28 0
-22 -9 -39 28 0
-22 -10 -39 28 0
-22 -6 -40 27 0
-22 -7 -40 28 0
-22 -8 -40 28 0
-22 -9 -40 28 0
-22 -10 -40 28 0
-23 -6 -36 27 0
-23 -7 -36 27 0
-23 -8 -36 27 0
-23 -9 -36 27 0
-23 -10 -36 27 0
-23 -6 -37 27 0
-23 -7 -37 28 0
-23 -8 -37 28 0
-23 -9 -37 28 0
-23 -10 -37 28 0
-23 -6 -38 27 0
-23 -7 -38 28 0
-23 -8 -38 29 0
-23 -9 -38 29 0
-23 -10 -38 29 0
-23 -6 -39 27 0
-23 -7 -39 28 0
-23 -8 -39 29 0
-23 -9 -39 29 0
-23 -10 -39 29 0
-23 -6 -40 27 0
-23 -7 -40 28 0
-23 -8 -40 29 0
-23 -9 -40 29 0
-23 -10 -40 29 0
-24 -6 -36 27 0
-24 -7 -36 27 0
-24 -8 -36 27 0
-24 -9 -36 27 0
-24 -10 -36 27 0
-24 -6 -37 27 0
-24 -7 -37 28 0
-24 -8 -37 28 0
-24 -9 -37 28 0
-24 -10 -37 28 0
-24 -6 -38 27 0
-24 -7 -38 28 0
-24 -8 -38 29 0
-24 -9 -38 29 0
-24 -10 -38 29 0
-24 -6 -39 27 0
-24 -7 -39 28 0
-24 -8 -39 29 0
-24 -9 -39 30 0
-24 -10 -39 30 0
-24 -6 -40 27 0
-24 -7 -40 28 0
-24 -8 -40 29 0
-24 -9 -40 30 0
-24 -10 -40 30 0
-25 -6 -36 27 0
-25 -7 -36 27 0
-25 -8 -36 27 0
-25 -9 -36 27 0
-25 -10 -36 27 0
-25 -6 -37 27 0
-25 -7 -37 28 0
-25 -8 -37 28 0
-25 -9 -37 28 0
-25 -10 -37 28 0
-25 -6 -38 27 0
-25 -7 -38 28 0
-25 -8 -38 29 0
-25 -9 -38 29 0
-25 -10 -38 29 0
-25 -6 -39 27 0
-25 -7 -39 28 0
-25 -8 -39 29 0
-25 -9 -39 30 0
-25 -10 -39 30 0
-25 -6 -40 27 0
-25 -7 -40 28 0
-25 -8 -40 29 0
-25 -9 -40 30 0
-25 -10 -40 26 0
-36 -6 -21 42 0
-36 -7 -21 42 0
-36 -8 -21 42 0
-36 -9 -21 42 0
-36 -10 -21 42 0
-36 -6 -22 42 0
-36 -7 -22 42 0
-36 -8 -22 42 0
-36 -9 -22 42 0
-36 -10 -22 42 0
-36 -6 -23 42 0
-36 -7 -23 42 0
-36 -8 -23 42 0
-36 -9 -23 42 0
-36 -10 -23 42 0
-36 -6 -24 42 0
-36 -7 -24 42 0
-36 -8 -24 42 0
-36 -9 -24 42 0
-36 -10 -24 42 0
-36 -6 -25 42 0
-36 -7 -25 42 0
-36 -8 -25 42 0
-36 -9 -25 42 0
-36 -10 -25 42 0
-37 -6 -21 42 0
-37 -7 -21 42 0
-37 -8 -21 42 0
-37 -9 -21 42 0
-37 -10 -21 42 0
-37 -6 -22 42 0
-37 -7 -22 43 0
-37 -8 -22 43 0
-37 -9 -22 43 0
-37 -10 -22 43 0
-37 -6 -23 42 0
-37 -7 -23 43 0
-37 -8 -23 43 0
-37 -9 -23 43 0
-37 -10 -23 43 0
-37 -6 -24 42 0
-37 -7 -24 43 0
-37 -8 -24 43 0
-37 -9 -24 43 0
-37 -10 -24 43 0
-37 -6 -25 42 0
-37 -7 -25 43 0
-37 -8 -25 43 0
-37 -9 -25 43 0
-37 -10 -25 43 0
-38 -6 -21 42 0
-38 -7 -21 42 0
-38 -8 -21 42 0
-38 -9 -21 42 0
-38 -10 -21 42 0
-38 -6 -22 42 0
-38 -7 -22 43 0
-38 -8 -22 43 0
-38 -9 -22 43 0
-38 -10 -22 43 0
-38 -6 -23 42 0
-38 -7 -23 43 0
-38 -8 -23 44 0
-38 -9 -23 44 0
-38 -10 -23 44 0
-38 -6 -24 42 0
-38 -7 -24 43 0
-38 -8 -24 44 0
-38 -9 -24 44 0
-38 -10 -24 44 0
-38 -6 -25 42 0
-38 -7 -25 43 0
-38 -8 -25 44 0
-38 -9 -25 44 0
-38 -10 -25 44 0
-39 -6 -21 42 0
-39 -7 -21 42 0
-39 -8 -21 42 0
-39 -9 -21 42 0
-39 -10 -21 42 0
-39 -6 -22 42 0
-39 -7 -22 43 0
-39 -8 -22 43 0
-39 -9 -22 43 0
-39 -10 -22 43 0
-39 -6 -23 42 0
-39 -7 -23 43 0
-39 -8 -23 44 0
-39 -9 -23 44 0
-39 -10 -23 44 0
-39 -6 -24 42 0
-39 -7 -24 43 0
-39 -8 -24 44 0
-39 -9 -24 45 0
-39 -10 -24 45 0
-39 -6 -25 42 0
-39 -7 -25 43 0
-39 -8 -25 44 0
-39 -9 -25 45 0
-39 -10 -25 45 0
-40 -6 -21 42 0
-40 -7 -21 42 0
-40 -8 -21 42 0
-40 -9 -21 42 0
-40 -10 -21 42 0
-40 -6 -22 42 0
-40 -7 -22 43 0
-40 -8 -22 43 0
-40 -9 -22 43 0
-40 -10 -22 43 0
-40 -6 -23 42 0
-40 -7 -23 43 0
-40 -8 -23 44 0
-40 -9 -23 44 0
-40 -10 -23 44 0
-40 -6 -24 42 0
-40 -7 -24 43 0
-40 -8 -24 44 0
-40 -9 -24 45 0
-40 -10 -24 45 0
-40 -6 -25 42 0
-40 -7 -25 43 0
-40 -8 -25 44 0
-40 -9 -25 45 0
-40 -10 -25 41 0
-11 -26 -41 0
-12 -27 -42 0
-13 -28 -43 0
-14 -29 -44 0
-15 -30 -45 0
-1 -16 -31 0
-2 -17 -32 0
-3 -18 -33 0
-4 -19 -34 0
-5 -20 -35 0
-6 -21 -36 0
-7 -22 -37 0
-8 -23 -38 0
-9 -24 -39 0
-10 -25 -40 0
